p tdp 12 43
1 2
1 3
1 4
1 6
1 7
1 8
1 9
1 10
2 3
2 5
2 6
2 8
2 9
2 11
3 5
3 6
3 7
3 8
3 9
3 10
3 11
4 5
4 8
4 11
4 12
5 6
5 7
5 9
5 11
6 7
6 8
6 9
6 11
6 12
7 9
7 10
8 9
8 10
8 11
9 10
9 12
10 12
11 12
